NAME : morphed18-5-15
COMMENT : Generated using the function morphInstances from the R-package netgen (Bossek,2015) - Number of clusters: 5 Alpha: 0.5
TYPE : TSP
DIMENSION : 18
EDGE_WEIGHT_TYPE : EUC_2D
NODE_COORD_SECTION
1 37.0388367453 22.0543360773
2 27.0975179606 72.3340547229
3 81.9567072579 87.1163753642
4 65.5621630533 84.5509410989
5 26.6719364884 34.8990792353
6 96.2673343609 8.2101356007
7 81.331352648 59.3107831373
8 26.7578807153 64.7323767908
9 37.7588528514 18.011801684
10 82.6911459751 10.5730015406
11 30.088065049 95.0655238182
12 66.8342411914 48.6132662361
13 60.375180481 55.3103399889
14 65.9303397938 35.0749969597
15 85.0828520986 54.2680136057
16 86.5808107879 9.3136552821
17 37.4035226497 56.8284599305
18 89.9036511741 64.3024499322
EOF
